c "103355.clq"
p edge 150 584
e 1 5
e 1 6
e 1 7
e 1 8
e 1 9
e 1 23
e 1 39
e 1 43
e 1 53
e 1 65
e 1 68
e 1 70
e 1 72
e 1 77
e 1 78
e 1 93
e 1 106
e 1 150
e 2 5
e 2 6
e 2 8
e 2 125
e 3 5
e 3 6
e 3 7
e 3 9
e 3 10
e 3 11
e 3 13
e 3 17
e 3 19
e 3 21
e 3 22
e 3 33
e 3 35
e 3 36
e 3 48
e 3 54
e 3 66
e 3 82
e 3 88
e 3 99
e 3 100
e 3 116
e 4 5
e 4 11
e 4 14
e 4 22
e 4 25
e 4 38
e 4 50
e 4 71
e 4 119
e 5 6
e 5 7
e 5 8
e 5 9
e 5 10
e 5 11
e 5 12
e 5 13
e 5 14
e 5 16
e 5 17
e 5 18
e 5 19
e 5 20
e 5 22
e 5 24
e 5 29
e 5 31
e 5 32
e 5 33
e 5 37
e 5 44
e 5 49
e 5 57
e 5 61
e 5 62
e 5 83
e 5 84
e 5 87
e 5 96
e 5 102
e 5 104
e 5 109
e 5 113
e 5 114
e 5 127
e 5 132
e 5 138
e 5 139
e 5 140
e 5 145
e 6 7
e 6 8
e 6 9
e 6 10
e 6 13
e 6 16
e 6 18
e 6 19
e 6 21
e 6 26
e 6 27
e 6 28
e 6 30
e 6 31
e 6 36
e 6 45
e 6 47
e 6 51
e 6 55
e 6 56
e 6 58
e 6 66
e 6 72
e 6 73
e 6 74
e 6 75
e 6 76
e 6 78
e 6 86
e 6 87
e 6 105
e 6 108
e 6 124
e 6 134
e 6 136
e 7 11
e 7 12
e 7 13
e 7 16
e 7 31
e 7 37
e 7 51
e 7 71
e 7 106
e 7 109
e 7 114
e 7 118
e 7 139
e 7 141
e 7 150
e 8 12
e 8 15
e 8 20
e 8 23
e 8 24
e 8 46
e 8 53
e 8 55
e 8 57
e 8 83
e 8 106
e 8 130
e 8 137
e 9 10
e 9 15
e 9 16
e 9 17
e 9 22
e 9 23
e 9 27
e 9 32
e 9 39
e 9 40
e 9 41
e 9 45
e 9 50
e 9 51
e 9 52
e 9 57
e 9 61
e 9 63
e 9 65
e 9 69
e 9 82
e 9 92
e 9 94
e 9 98
e 9 100
e 9 105
e 9 112
e 9 120
e 9 121
e 9 122
e 9 123
e 9 124
e 9 137
e 10 14
e 10 18
e 10 20
e 10 23
e 10 24
e 10 25
e 10 29
e 10 30
e 10 33
e 10 35
e 10 37
e 10 38
e 10 40
e 10 49
e 10 59
e 10 63
e 10 66
e 10 82
e 10 119
e 10 122
e 10 123
e 10 135
e 10 142
e 10 144
e 11 12
e 11 14
e 11 17
e 11 24
e 11 25
e 11 26
e 11 29
e 11 67
e 11 78
e 11 80
e 11 85
e 11 92
e 11 93
e 11 95
e 11 115
e 11 125
e 11 132
e 11 147
e 12 15
e 12 26
e 12 32
e 12 38
e 12 42
e 12 43
e 12 55
e 12 59
e 12 66
e 12 68
e 12 70
e 12 115
e 12 117
e 12 136
e 12 144
e 12 145
e 12 149
e 13 15
e 13 21
e 13 91
e 13 103
e 13 112
e 13 128
e 13 143
e 14 21
e 14 28
e 14 109
e 14 148
e 15 18
e 15 27
e 15 34
e 15 36
e 15 45
e 15 62
e 15 67
e 15 73
e 15 87
e 15 95
e 15 99
e 15 101
e 15 112
e 15 120
e 15 141
e 15 144
e 15 147
e 16 20
e 16 28
e 16 35
e 16 39
e 16 47
e 16 64
e 16 100
e 16 106
e 16 128
e 17 19
e 17 25
e 17 31
e 17 33
e 17 40
e 17 76
e 17 96
e 17 102
e 17 127
e 17 145
e 18 39
e 18 115
e 19 28
e 19 36
e 19 41
e 19 53
e 19 60
e 19 62
e 19 65
e 19 67
e 19 79
e 19 80
e 19 108
e 19 146
e 20 56
e 21 69
e 21 71
e 21 119
e 22 34
e 22 48
e 22 54
e 22 73
e 22 75
e 22 137
e 23 27
e 23 30
e 23 34
e 23 52
e 23 61
e 23 63
e 23 75
e 23 126
e 24 30
e 24 44
e 24 46
e 24 55
e 24 81
e 24 84
e 24 95
e 24 131
e 25 26
e 25 37
e 25 41
e 25 43
e 25 70
e 25 71
e 25 89
e 25 90
e 25 108
e 25 113
e 25 150
e 26 50
e 26 60
e 26 64
e 27 32
e 27 49
e 27 51
e 27 56
e 27 63
e 27 65
e 27 79
e 27 99
e 27 121
e 27 122
e 27 124
e 27 142
e 28 29
e 28 35
e 28 42
e 28 47
e 28 72
e 28 97
e 28 98
e 29 48
e 29 56
e 29 116
e 30 38
e 30 43
e 30 44
e 30 59
e 30 74
e 30 75
e 30 82
e 30 96
e 30 101
e 30 118
e 31 52
e 32 41
e 32 42
e 32 54
e 32 58
e 32 91
e 32 92
e 32 100
e 32 120
e 32 131
e 33 34
e 33 59
e 33 98
e 34 45
e 34 107
e 34 113
e 35 94
e 36 48
e 36 87
e 36 111
e 36 125
e 36 127
e 36 146
e 37 40
e 37 131
e 37 133
e 38 46
e 38 49
e 38 58
e 38 64
e 38 141
e 39 52
e 39 91
e 40 42
e 40 44
e 40 47
e 40 58
e 40 69
e 40 74
e 40 126
e 41 60
e 41 80
e 41 101
e 41 109
e 41 147
e 42 46
e 42 83
e 42 134
e 43 57
e 43 78
e 43 93
e 43 105
e 43 137
e 44 64
e 44 79
e 44 128
e 45 67
e 45 85
e 46 54
e 46 85
e 47 50
e 47 77
e 47 80
e 47 110
e 47 121
e 48 76
e 48 86
e 48 123
e 48 146
e 49 76
e 49 79
e 49 94
e 49 134
e 50 83
e 50 138
e 50 148
e 51 53
e 51 61
e 51 81
e 51 84
e 51 91
e 51 110
e 51 128
e 51 129
e 51 130
e 52 92
e 52 111
e 53 60
e 53 72
e 53 99
e 53 115
e 53 124
e 53 133
e 53 149
e 54 70
e 54 81
e 54 103
e 54 136
e 54 149
e 55 101
e 55 118
e 55 130
e 55 142
e 56 105
e 56 107
e 56 113
e 57 68
e 57 73
e 57 112
e 57 117
e 57 126
e 57 132
e 58 62
e 58 77
e 59 88
e 59 90
e 60 74
e 60 96
e 63 68
e 63 69
e 63 86
e 63 89
e 63 95
e 63 131
e 64 111
e 64 123
e 65 86
e 65 98
e 66 97
e 66 132
e 67 81
e 67 116
e 67 126
e 68 107
e 68 139
e 69 139
e 69 143
e 70 77
e 70 85
e 70 103
e 70 129
e 71 94
e 74 89
e 74 116
e 75 102
e 76 84
e 76 104
e 77 88
e 77 89
e 77 129
e 77 135
e 79 118
e 80 90
e 80 103
e 80 111
e 80 117
e 80 125
e 80 138
e 80 141
e 81 90
e 81 107
e 81 110
e 81 114
e 81 117
e 81 143
e 82 136
e 83 88
e 83 97
e 83 144
e 84 102
e 85 145
e 87 104
e 88 114
e 91 93
e 92 104
e 92 149
e 94 127
e 95 97
e 95 119
e 101 129
e 102 108
e 102 110
e 102 135
e 103 120
e 103 134
e 105 135
e 106 138
e 108 133
e 111 133
e 111 147
e 114 122
e 114 142
e 119 148
e 120 121
e 122 140
e 127 130
e 128 140
e 130 143
e 134 140
e 136 146
e 143 150
e 147 148
